HUN,8,6,573
0,22,1,3,2,18,5,22,3,30,4,2
1,5,0,5,2,1,5,30,4,8,3,5
0,12,2,4,1,15,5,7,3,9,4,5
2,2,0,15,1,13,4,3,3,16,5,24
2,25,1,15,0,9,3,17,4,13,5,23
0,7,1,5,2,25,4,12,3,21,5,30
2,23,0,3,1,28,4,16,3,7,5,2
0,26,1,16,2,5,5,24,4,26,3,3
